741.91 0
0 58 10 38 65 66 11 35 8 0
0 75 68 2 74 21 61 28 62 6 0
0 73 1 22 64 42 43 41 56 23 63 33 0
0 29 5 37 20 70 60 71 69 36 47 48 30 0
0 7 53 14 59 19 54 13 57 15 45 0
0 26 12 72 31 55 25 50 18 24 49 16 51 0
0 17 3 44 32 9 39 40 0
0 4 27 52 46 34 67 0
